NAME
ROWS
 N  OBJ
 G  c1
 G  c2
 G  c3
 G  c4
 G  c5
 G  c6
 G  c7
 G  c8
 G  c9
 G  c10
 G  c11
 G  c12
 G  c13
 G  c14
 G  c15
 G  c16
 G  c17
 G  c18
 G  c19
 G  c20
 G  c21
 G  c22
 G  c23
 G  c24
 G  c25
 G  c26
 G  c27
 G  c28
 G  c29
 G  c30
 G  c31
 G  c32
 G  c33
 G  c34
 G  c35
 G  c36
 G  c37
 G  c38
 G  c39
 G  c40
 G  c41
 G  c42
 G  c43
 G  c44
 G  c45
 G  c46
 G  c47
 G  c48
 G  c49
 G  c50
 G  c51
 G  c52
 G  c53
 G  c54
 G  c55
 G  c56
 G  c57
 G  c58
 G  c59
 G  c60
 G  c61
 G  c62
 G  c63
 G  c64
 G  c65
 G  c66
 G  c67
 G  c68
 G  c69
 G  c70
 G  c71
 G  c72
 G  c73
 G  c74
 G  c75
 G  c76
 G  c77
 G  c78
 G  c79
 G  c80
COLUMNS
    MARKER    'MARKER'                 'INTORG'
    x[1]      c1        1
    x[1]      c3        1
    x[1]      c69       1
    x[1]      c70       1
    x[1]      c79       1
    x[1]      OBJ       1
    x[2]      c2        1
    x[2]      c9        1
    x[2]      c15       1
    x[2]      c18       1
    x[2]      c23       1
    x[2]      c25       1
    x[2]      c28       1
    x[2]      c37       1
    x[2]      c45       1
    x[2]      c56       1
    x[2]      c57       1
    x[2]      c66       1
    x[2]      OBJ       1
    x[3]      c1        1
    x[3]      c3        1
    x[3]      c12       1
    x[3]      c15       1
    x[3]      c37       1
    x[3]      c44       1
    x[3]      c49       1
    x[3]      c70       1
    x[3]      c74       1
    x[3]      c77       1
    x[3]      OBJ       1
    x[4]      c4        1
    x[4]      c14       1
    x[4]      c21       1
    x[4]      c31       1
    x[4]      c35       1
    x[4]      c40       1
    x[4]      c50       1
    x[4]      c67       1
    x[4]      OBJ       1
    x[5]      c5        1
    x[5]      c16       1
    x[5]      c28       1
    x[5]      c30       1
    x[5]      c31       1
    x[5]      c33       1
    x[5]      c35       1
    x[5]      c38       1
    x[5]      c42       1
    x[5]      c50       1
    x[5]      c55       1
    x[5]      c65       1
    x[5]      c70       1
    x[5]      c77       1
    x[5]      OBJ       1
    x[6]      c6        1
    x[6]      c11       1
    x[6]      c14       1
    x[6]      c16       1
    x[6]      c40       1
    x[6]      c45       1
    x[6]      c49       1
    x[6]      c70       1
    x[6]      c72       1
    x[6]      OBJ       1
    x[7]      c7        1
    x[7]      c13       1
    x[7]      c18       1
    x[7]      c33       1
    x[7]      c42       1
    x[7]      c53       1
    x[7]      c56       1
    x[7]      c69       1
    x[7]      c78       1
    x[7]      OBJ       1
    x[8]      c8        1
    x[8]      c25       1
    x[8]      c37       1
    x[8]      c39       1
    x[8]      c41       1
    x[8]      c48       1
    x[8]      c74       1
    x[8]      OBJ       1
    x[9]      c2        1
    x[9]      c9        1
    x[9]      c15       1
    x[9]      c25       1
    x[9]      c63       1
    x[9]      c79       1
    x[9]      OBJ       1
    x[10]     c10       1
    x[10]     c21       1
    x[10]     c23       1
    x[10]     c33       1
    x[10]     c48       1
    x[10]     c58       1
    x[10]     c65       1
    x[10]     c74       1
    x[10]     OBJ       1
    x[11]     c6        1
    x[11]     c11       1
    x[11]     c19       1
    x[11]     c33       1
    x[11]     c51       1
    x[11]     c61       1
    x[11]     OBJ       1
    x[12]     c3        1
    x[12]     c12       1
    x[12]     c17       1
    x[12]     c25       1
    x[12]     c31       1
    x[12]     c35       1
    x[12]     c36       1
    x[12]     c48       1
    x[12]     c60       1
    x[12]     c61       1
    x[12]     c71       1
    x[12]     OBJ       1
    x[13]     c7        1
    x[13]     c13       1
    x[13]     c21       1
    x[13]     c58       1
    x[13]     c68       1
    x[13]     c77       1
    x[13]     c78       1
    x[13]     OBJ       1
    x[14]     c4        1
    x[14]     c6        1
    x[14]     c14       1
    x[14]     c19       1
    x[14]     c25       1
    x[14]     c30       1
    x[14]     c32       1
    x[14]     c35       1
    x[14]     c61       1
    x[14]     c74       1
    x[14]     c78       1
    x[14]     OBJ       1
    x[15]     c2        1
    x[15]     c3        1
    x[15]     c9        1
    x[15]     c15       1
    x[15]     c16       1
    x[15]     c26       1
    x[15]     c39       1
    x[15]     c58       1
    x[15]     c68       1
    x[15]     c73       1
    x[15]     c80       1
    x[15]     OBJ       1
    x[16]     c5        1
    x[16]     c6        1
    x[16]     c15       1
    x[16]     c16       1
    x[16]     c24       1
    x[16]     c25       1
    x[16]     c32       1
    x[16]     c40       1
    x[16]     c43       1
    x[16]     c51       1
    x[16]     c63       1
    x[16]     c70       1
    x[16]     c78       1
    x[16]     c79       1
    x[16]     OBJ       1
    x[17]     c12       1
    x[17]     c17       1
    x[17]     c19       1
    x[17]     c23       1
    x[17]     c24       1
    x[17]     c44       1
    x[17]     c45       1
    x[17]     OBJ       1
    x[18]     c2        1
    x[18]     c7        1
    x[18]     c18       1
    x[18]     c29       1
    x[18]     c30       1
    x[18]     c32       1
    x[18]     c38       1
    x[18]     c42       1
    x[18]     c52       1
    x[18]     c67       1
    x[18]     c68       1
    x[18]     OBJ       1
    x[19]     c11       1
    x[19]     c14       1
    x[19]     c17       1
    x[19]     c19       1
    x[19]     c26       1
    x[19]     c48       1
    x[19]     c55       1
    x[19]     c63       1
    x[19]     c73       1
    x[19]     OBJ       1
    x[20]     c20       1
    x[20]     c21       1
    x[20]     c36       1
    x[20]     c59       1
    x[20]     c62       1
    x[20]     c71       1
    x[20]     OBJ       1
    x[21]     c4        1
    x[21]     c10       1
    x[21]     c13       1
    x[21]     c20       1
    x[21]     c21       1
    x[21]     c30       1
    x[21]     c44       1
    x[21]     c46       1
    x[21]     OBJ       1
    x[22]     c22       1
    x[22]     c36       1
    x[22]     c64       1
    x[22]     c69       1
    x[22]     c72       1
    x[22]     c77       1
    x[22]     OBJ       1
    x[23]     c2        1
    x[23]     c10       1
    x[23]     c17       1
    x[23]     c23       1
    x[23]     c45       1
    x[23]     c47       1
    x[23]     c52       1
    x[23]     c53       1
    x[23]     c58       1
    x[23]     c76       1
    x[23]     c78       1
    x[23]     OBJ       1
    x[24]     c16       1
    x[24]     c17       1
    x[24]     c24       1
    x[24]     c32       1
    x[24]     c48       1
    x[24]     c52       1
    x[24]     c53       1
    x[24]     c61       1
    x[24]     c62       1
    x[24]     c66       1
    x[24]     c70       1
    x[24]     c77       1
    x[24]     OBJ       1
    x[25]     c2        1
    x[25]     c8        1
    x[25]     c9        1
    x[25]     c12       1
    x[25]     c14       1
    x[25]     c16       1
    x[25]     c25       1
    x[25]     c28       1
    x[25]     c38       1
    x[25]     c70       1
    x[25]     c72       1
    x[25]     c75       1
    x[25]     c78       1
    x[25]     OBJ       1
    x[26]     c15       1
    x[26]     c19       1
    x[26]     c26       1
    x[26]     c27       1
    x[26]     c32       1
    x[26]     c33       1
    x[26]     c34       1
    x[26]     c48       1
    x[26]     c49       1
    x[26]     c56       1
    x[26]     c76       1
    x[26]     OBJ       1
    x[27]     c26       1
    x[27]     c27       1
    x[27]     c29       1
    x[27]     c32       1
    x[27]     c57       1
    x[27]     OBJ       1
    x[28]     c2        1
    x[28]     c5        1
    x[28]     c25       1
    x[28]     c28       1
    x[28]     c29       1
    x[28]     c33       1
    x[28]     c71       1
    x[28]     OBJ       1
    x[29]     c18       1
    x[29]     c27       1
    x[29]     c28       1
    x[29]     c29       1
    x[29]     c31       1
    x[29]     c32       1
    x[29]     c48       1
    x[29]     c51       1
    x[29]     c55       1
    x[29]     c75       1
    x[29]     OBJ       1
    x[30]     c5        1
    x[30]     c14       1
    x[30]     c18       1
    x[30]     c21       1
    x[30]     c30       1
    x[30]     c36       1
    x[30]     c39       1
    x[30]     c56       1
    x[30]     c70       1
    x[30]     c79       1
    x[30]     OBJ       1
    x[31]     c4        1
    x[31]     c5        1
    x[31]     c12       1
    x[31]     c29       1
    x[31]     c31       1
    x[31]     c34       1
    x[31]     c46       1
    x[31]     c71       1
    x[31]     c76       1
    x[31]     OBJ       1
    x[32]     c14       1
    x[32]     c16       1
    x[32]     c18       1
    x[32]     c24       1
    x[32]     c26       1
    x[32]     c27       1
    x[32]     c29       1
    x[32]     c32       1
    x[32]     c39       1
    x[32]     c50       1
    x[32]     c51       1
    x[32]     c56       1
    x[32]     c60       1
    x[32]     c63       1
    x[32]     c77       1
    x[32]     OBJ       1
    x[33]     c5        1
    x[33]     c7        1
    x[33]     c10       1
    x[33]     c11       1
    x[33]     c26       1
    x[33]     c28       1
    x[33]     c33       1
    x[33]     c38       1
    x[33]     c61       1
    x[33]     c67       1
    x[33]     OBJ       1
    x[34]     c26       1
    x[34]     c31       1
    x[34]     c34       1
    x[34]     c67       1
    x[34]     c69       1
    x[34]     c70       1
    x[34]     c74       1
    x[34]     c78       1
    x[34]     OBJ       1
    x[35]     c4        1
    x[35]     c5        1
    x[35]     c12       1
    x[35]     c14       1
    x[35]     c35       1
    x[35]     c51       1
    x[35]     c80       1
    x[35]     OBJ       1
    x[36]     c12       1
    x[36]     c20       1
    x[36]     c22       1
    x[36]     c30       1
    x[36]     c36       1
    x[36]     c39       1
    x[36]     c51       1
    x[36]     c58       1
    x[36]     c59       1
    x[36]     c65       1
    x[36]     c70       1
    x[36]     c73       1
    x[36]     OBJ       1
    x[37]     c2        1
    x[37]     c3        1
    x[37]     c8        1
    x[37]     c37       1
    x[37]     c40       1
    x[37]     c45       1
    x[37]     c69       1
    x[37]     c75       1
    x[37]     c76       1
    x[37]     OBJ       1
    x[38]     c5        1
    x[38]     c18       1
    x[38]     c25       1
    x[38]     c33       1
    x[38]     c38       1
    x[38]     c40       1
    x[38]     c41       1
    x[38]     c48       1
    x[38]     c54       1
    x[38]     c58       1
    x[38]     c66       1
    x[38]     OBJ       1
    x[39]     c8        1
    x[39]     c15       1
    x[39]     c30       1
    x[39]     c32       1
    x[39]     c36       1
    x[39]     c39       1
    x[39]     c49       1
    x[39]     c62       1
    x[39]     c66       1
    x[39]     c76       1
    x[39]     OBJ       1
    x[40]     c4        1
    x[40]     c6        1
    x[40]     c16       1
    x[40]     c37       1
    x[40]     c38       1
    x[40]     c40       1
    x[40]     c63       1
    x[40]     c71       1
    x[40]     OBJ       1
    x[41]     c8        1
    x[41]     c38       1
    x[41]     c41       1
    x[41]     c45       1
    x[41]     c68       1
    x[41]     c70       1
    x[41]     c71       1
    x[41]     c72       1
    x[41]     OBJ       1
    x[42]     c5        1
    x[42]     c7        1
    x[42]     c18       1
    x[42]     c42       1
    x[42]     c60       1
    x[42]     OBJ       1
    x[43]     c16       1
    x[43]     c43       1
    x[43]     c50       1
    x[43]     c63       1
    x[43]     c65       1
    x[43]     OBJ       1
    x[44]     c3        1
    x[44]     c17       1
    x[44]     c21       1
    x[44]     c44       1
    x[44]     c50       1
    x[44]     c53       1
    x[44]     c60       1
    x[44]     c61       1
    x[44]     c62       1
    x[44]     c69       1
    x[44]     c72       1
    x[44]     c77       1
    x[44]     c78       1
    x[44]     OBJ       1
    x[45]     c2        1
    x[45]     c6        1
    x[45]     c17       1
    x[45]     c23       1
    x[45]     c37       1
    x[45]     c41       1
    x[45]     c45       1
    x[45]     c51       1
    x[45]     OBJ       1
    x[46]     c21       1
    x[46]     c31       1
    x[46]     c46       1
    x[46]     c53       1
    x[46]     c63       1
    x[46]     c79       1
    x[46]     OBJ       1
    x[47]     c23       1
    x[47]     c47       1
    x[47]     c48       1
    x[47]     c49       1
    x[47]     c50       1
    x[47]     c52       1
    x[47]     c71       1
    x[47]     c73       1
    x[47]     OBJ       1
    x[48]     c8        1
    x[48]     c10       1
    x[48]     c12       1
    x[48]     c19       1
    x[48]     c24       1
    x[48]     c26       1
    x[48]     c29       1
    x[48]     c38       1
    x[48]     c47       1
    x[48]     c48       1
    x[48]     c58       1
    x[48]     c59       1
    x[48]     c67       1
    x[48]     OBJ       1
    x[49]     c3        1
    x[49]     c6        1
    x[49]     c26       1
    x[49]     c39       1
    x[49]     c47       1
    x[49]     c49       1
    x[49]     c51       1
    x[49]     c66       1
    x[49]     c76       1
    x[49]     OBJ       1
    x[50]     c4        1
    x[50]     c5        1
    x[50]     c32       1
    x[50]     c43       1
    x[50]     c44       1
    x[50]     c47       1
    x[50]     c50       1
    x[50]     c69       1
    x[50]     c77       1
    x[50]     OBJ       1
    x[51]     c11       1
    x[51]     c16       1
    x[51]     c29       1
    x[51]     c32       1
    x[51]     c35       1
    x[51]     c36       1
    x[51]     c45       1
    x[51]     c49       1
    x[51]     c51       1
    x[51]     c58       1
    x[51]     c79       1
    x[51]     OBJ       1
    x[52]     c18       1
    x[52]     c23       1
    x[52]     c24       1
    x[52]     c47       1
    x[52]     c52       1
    x[52]     c57       1
    x[52]     c60       1
    x[52]     c66       1
    x[52]     c75       1
    x[52]     OBJ       1
    x[53]     c7        1
    x[53]     c23       1
    x[53]     c24       1
    x[53]     c44       1
    x[53]     c46       1
    x[53]     c53       1
    x[53]     c58       1
    x[53]     c62       1
    x[53]     c67       1
    x[53]     c78       1
    x[53]     OBJ       1
    x[54]     c38       1
    x[54]     c54       1
    x[54]     c67       1
    x[54]     c79       1
    x[54]     OBJ       1
    x[55]     c5        1
    x[55]     c19       1
    x[55]     c29       1
    x[55]     c55       1
    x[55]     c69       1
    x[55]     OBJ       1
    x[56]     c2        1
    x[56]     c7        1
    x[56]     c26       1
    x[56]     c30       1
    x[56]     c32       1
    x[56]     c56       1
    x[56]     c59       1
    x[56]     c66       1
    x[56]     c73       1
    x[56]     OBJ       1
    x[57]     c2        1
    x[57]     c27       1
    x[57]     c52       1
    x[57]     c57       1
    x[57]     c66       1
    x[57]     c73       1
    x[57]     OBJ       1
    x[58]     c10       1
    x[58]     c13       1
    x[58]     c15       1
    x[58]     c23       1
    x[58]     c36       1
    x[58]     c38       1
    x[58]     c48       1
    x[58]     c51       1
    x[58]     c53       1
    x[58]     c58       1
    x[58]     c78       1
    x[58]     OBJ       1
    x[59]     c20       1
    x[59]     c36       1
    x[59]     c48       1
    x[59]     c56       1
    x[59]     c59       1
    x[59]     c64       1
    x[59]     c68       1
    x[59]     c70       1
    x[59]     OBJ       1
    x[60]     c12       1
    x[60]     c32       1
    x[60]     c42       1
    x[60]     c44       1
    x[60]     c52       1
    x[60]     c60       1
    x[60]     c65       1
    x[60]     c67       1
    x[60]     OBJ       1
    x[61]     c11       1
    x[61]     c12       1
    x[61]     c14       1
    x[61]     c24       1
    x[61]     c33       1
    x[61]     c44       1
    x[61]     c61       1
    x[61]     c66       1
    x[61]     OBJ       1
    x[62]     c20       1
    x[62]     c24       1
    x[62]     c39       1
    x[62]     c44       1
    x[62]     c53       1
    x[62]     c62       1
    x[62]     c64       1
    x[62]     c66       1
    x[62]     c71       1
    x[62]     OBJ       1
    x[63]     c9        1
    x[63]     c16       1
    x[63]     c19       1
    x[63]     c32       1
    x[63]     c40       1
    x[63]     c43       1
    x[63]     c46       1
    x[63]     c63       1
    x[63]     c66       1
    x[63]     OBJ       1
    x[64]     c22       1
    x[64]     c59       1
    x[64]     c62       1
    x[64]     c64       1
    x[64]     c78       1
    x[64]     OBJ       1
    x[65]     c5        1
    x[65]     c10       1
    x[65]     c36       1
    x[65]     c43       1
    x[65]     c60       1
    x[65]     c65       1
    x[65]     c77       1
    x[65]     OBJ       1
    x[66]     c2        1
    x[66]     c24       1
    x[66]     c38       1
    x[66]     c39       1
    x[66]     c49       1
    x[66]     c52       1
    x[66]     c56       1
    x[66]     c57       1
    x[66]     c61       1
    x[66]     c62       1
    x[66]     c63       1
    x[66]     c66       1
    x[66]     c70       1
    x[66]     OBJ       1
    x[67]     c4        1
    x[67]     c18       1
    x[67]     c33       1
    x[67]     c34       1
    x[67]     c48       1
    x[67]     c53       1
    x[67]     c54       1
    x[67]     c60       1
    x[67]     c67       1
    x[67]     OBJ       1
    x[68]     c13       1
    x[68]     c15       1
    x[68]     c18       1
    x[68]     c41       1
    x[68]     c59       1
    x[68]     c68       1
    x[68]     c76       1
    x[68]     OBJ       1
    x[69]     c1        1
    x[69]     c7        1
    x[69]     c22       1
    x[69]     c34       1
    x[69]     c37       1
    x[69]     c44       1
    x[69]     c50       1
    x[69]     c55       1
    x[69]     c69       1
    x[69]     c75       1
    x[69]     OBJ       1
    x[70]     c1        1
    x[70]     c3        1
    x[70]     c5        1
    x[70]     c6        1
    x[70]     c16       1
    x[70]     c24       1
    x[70]     c25       1
    x[70]     c30       1
    x[70]     c34       1
    x[70]     c36       1
    x[70]     c41       1
    x[70]     c59       1
    x[70]     c66       1
    x[70]     c70       1
    x[70]     OBJ       1
    x[71]     c12       1
    x[71]     c20       1
    x[71]     c28       1
    x[71]     c31       1
    x[71]     c40       1
    x[71]     c41       1
    x[71]     c47       1
    x[71]     c62       1
    x[71]     c71       1
    x[71]     c73       1
    x[71]     c75       1
    x[71]     OBJ       1
    x[72]     c6        1
    x[72]     c22       1
    x[72]     c25       1
    x[72]     c41       1
    x[72]     c44       1
    x[72]     c72       1
    x[72]     OBJ       1
    x[73]     c15       1
    x[73]     c19       1
    x[73]     c36       1
    x[73]     c47       1
    x[73]     c56       1
    x[73]     c57       1
    x[73]     c71       1
    x[73]     c73       1
    x[73]     OBJ       1
    x[74]     c3        1
    x[74]     c8        1
    x[74]     c10       1
    x[74]     c14       1
    x[74]     c34       1
    x[74]     c74       1
    x[74]     OBJ       1
    x[75]     c25       1
    x[75]     c29       1
    x[75]     c37       1
    x[75]     c52       1
    x[75]     c69       1
    x[75]     c71       1
    x[75]     c75       1
    x[75]     c78       1
    x[75]     OBJ       1
    x[76]     c23       1
    x[76]     c26       1
    x[76]     c31       1
    x[76]     c37       1
    x[76]     c39       1
    x[76]     c49       1
    x[76]     c68       1
    x[76]     c76       1
    x[76]     OBJ       1
    x[77]     c3        1
    x[77]     c5        1
    x[77]     c13       1
    x[77]     c22       1
    x[77]     c24       1
    x[77]     c32       1
    x[77]     c44       1
    x[77]     c50       1
    x[77]     c65       1
    x[77]     c77       1
    x[77]     OBJ       1
    x[78]     c7        1
    x[78]     c13       1
    x[78]     c14       1
    x[78]     c16       1
    x[78]     c23       1
    x[78]     c25       1
    x[78]     c34       1
    x[78]     c44       1
    x[78]     c53       1
    x[78]     c58       1
    x[78]     c64       1
    x[78]     c75       1
    x[78]     c78       1
    x[78]     c79       1
    x[78]     OBJ       1
    x[79]     c1        1
    x[79]     c9        1
    x[79]     c16       1
    x[79]     c30       1
    x[79]     c46       1
    x[79]     c51       1
    x[79]     c54       1
    x[79]     c78       1
    x[79]     c79       1
    x[79]     OBJ       1
    x[80]     c15       1
    x[80]     c35       1
    x[80]     c80       1
    x[80]     OBJ       1
    MARKER    'MARKER'                 'INTEND'
RHS
    rhs       c1        1
    rhs       c2        1
    rhs       c3        1
    rhs       c4        1
    rhs       c5        1
    rhs       c6        1
    rhs       c7        1
    rhs       c8        1
    rhs       c9        1
    rhs       c10       1
    rhs       c11       1
    rhs       c12       1
    rhs       c13       1
    rhs       c14       1
    rhs       c15       1
    rhs       c16       1
    rhs       c17       1
    rhs       c18       1
    rhs       c19       1
    rhs       c20       1
    rhs       c21       1
    rhs       c22       1
    rhs       c23       1
    rhs       c24       1
    rhs       c25       1
    rhs       c26       1
    rhs       c27       1
    rhs       c28       1
    rhs       c29       1
    rhs       c30       1
    rhs       c31       1
    rhs       c32       1
    rhs       c33       1
    rhs       c34       1
    rhs       c35       1
    rhs       c36       1
    rhs       c37       1
    rhs       c38       1
    rhs       c39       1
    rhs       c40       1
    rhs       c41       1
    rhs       c42       1
    rhs       c43       1
    rhs       c44       1
    rhs       c45       1
    rhs       c46       1
    rhs       c47       1
    rhs       c48       1
    rhs       c49       1
    rhs       c50       1
    rhs       c51       1
    rhs       c52       1
    rhs       c53       1
    rhs       c54       1
    rhs       c55       1
    rhs       c56       1
    rhs       c57       1
    rhs       c58       1
    rhs       c59       1
    rhs       c60       1
    rhs       c61       1
    rhs       c62       1
    rhs       c63       1
    rhs       c64       1
    rhs       c65       1
    rhs       c66       1
    rhs       c67       1
    rhs       c68       1
    rhs       c69       1
    rhs       c70       1
    rhs       c71       1
    rhs       c72       1
    rhs       c73       1
    rhs       c74       1
    rhs       c75       1
    rhs       c76       1
    rhs       c77       1
    rhs       c78       1
    rhs       c79       1
    rhs       c80       1
RANGES
BOUNDS
 BV bounds    x[1]
 BV bounds    x[2]
 BV bounds    x[3]
 BV bounds    x[4]
 BV bounds    x[5]
 BV bounds    x[6]
 BV bounds    x[7]
 BV bounds    x[8]
 BV bounds    x[9]
 BV bounds    x[10]
 BV bounds    x[11]
 BV bounds    x[12]
 BV bounds    x[13]
 BV bounds    x[14]
 BV bounds    x[15]
 BV bounds    x[16]
 BV bounds    x[17]
 BV bounds    x[18]
 BV bounds    x[19]
 BV bounds    x[20]
 BV bounds    x[21]
 BV bounds    x[22]
 BV bounds    x[23]
 BV bounds    x[24]
 BV bounds    x[25]
 BV bounds    x[26]
 BV bounds    x[27]
 BV bounds    x[28]
 BV bounds    x[29]
 BV bounds    x[30]
 BV bounds    x[31]
 BV bounds    x[32]
 BV bounds    x[33]
 BV bounds    x[34]
 BV bounds    x[35]
 BV bounds    x[36]
 BV bounds    x[37]
 BV bounds    x[38]
 BV bounds    x[39]
 BV bounds    x[40]
 BV bounds    x[41]
 BV bounds    x[42]
 BV bounds    x[43]
 BV bounds    x[44]
 BV bounds    x[45]
 BV bounds    x[46]
 BV bounds    x[47]
 BV bounds    x[48]
 BV bounds    x[49]
 BV bounds    x[50]
 BV bounds    x[51]
 BV bounds    x[52]
 BV bounds    x[53]
 BV bounds    x[54]
 BV bounds    x[55]
 BV bounds    x[56]
 BV bounds    x[57]
 BV bounds    x[58]
 BV bounds    x[59]
 BV bounds    x[60]
 BV bounds    x[61]
 BV bounds    x[62]
 BV bounds    x[63]
 BV bounds    x[64]
 BV bounds    x[65]
 BV bounds    x[66]
 BV bounds    x[67]
 BV bounds    x[68]
 BV bounds    x[69]
 BV bounds    x[70]
 BV bounds    x[71]
 BV bounds    x[72]
 BV bounds    x[73]
 BV bounds    x[74]
 BV bounds    x[75]
 BV bounds    x[76]
 BV bounds    x[77]
 BV bounds    x[78]
 BV bounds    x[79]
 BV bounds    x[80]
ENDATA
